 $contrl runtyp=energy coord=fragonly $end
 $EFRAG
 coord=cart iscrelec=1 iscrpol=1
