 $contrl runtyp=globop coord=fragonly $end
 $statpt projct=.f. $end 
 $system mwords=500 $end
 $globop tempi=400 mcmin=.t. tempf=200 ntemps=100 nprt=-1 
   nfrmov=1 ifxfrg(2)=1 $end
 $EFRAG
 coord=cart iscrelec=1 iscrpol=1
FRAGNAME=F1REF
A01C        -5.2709 4.7354 -0.2433
A02O        -5.5191 3.7798 -0.4016
A03N        -6.0360 3.5770 -1.2288
FRAGNAME=BA
A01C      6.46587610    -7.55875874     0.67542505
A02C      5.49061012    -7.72944307     0.43403733
A03C      6.51223564    -6.97099686     1.50664997
 $end
 $F1REF
 $BA
EFP DATA FOR FRAGNAME SCFTYP=RHF     ... GENERATED WITH BASIS SET=XXX
 COORDINATES (BOHR)
A01C      -0.3305871272   0.0352507409   0.0000000000  12.0000000  6.0
A02C       1.0205240504   2.2883505710   0.0000000000  12.0000000  6.0
A03C       3.6328192489   2.2456561740   0.0000000000  12.0000000  6.0
A04C       4.8996500123  -0.0491184878   0.0000000000  12.0000000  6.0
A05C       3.5590328203  -2.2989385626   0.0000000000  12.0000000  6.0
A06C       0.9433971720  -2.2617358512   0.0000000000  12.0000000  6.0
A07C      -3.1362050757   0.1780526577   0.0000000000  12.0000000  6.0
A08O      -4.3194832456   2.0914800039   0.0000000000  15.9949100  8.0
A09O      -4.2561852149  -2.0735612497   0.0000000000  15.9949100  8.0
A10H       0.0068481722   4.0449921909   0.0000000000   1.0078250  1.0
A11H       4.6770428784   3.9877557895   0.0000000000   1.0078250  1.0
A12H       6.9317594146  -0.0829574291   0.0000000000   1.0078250  1.0
A13H       4.5460499399  -4.0741991788   0.0000000000   1.0078250  1.0
A14H      -0.1025962683  -3.9980965191   0.0000000000   1.0078250  1.0
A15H      -6.0340779635  -1.7992727075   0.0000000000   1.0078250  1.0
BO21       0.3449684616   1.1618006559   0.0000000000   0.0000000  0.0
BO32       2.3266716496   2.2670033725   0.0000000000   0.0000000  0.0
BO43       4.2662346306   1.0982688431   0.0000000000   0.0000000  0.0
BO54       4.2293414163  -1.1740285252   0.0000000000   0.0000000  0.0
BO61       0.3064050224  -1.1132425551   0.0000000000   0.0000000  0.0
BO65       2.2512149962  -2.2803372069   0.0000000000   0.0000000  0.0
BO71      -1.7333961014   0.1066516993   0.0000000000   0.0000000  0.0
BO87      -3.7278441607   1.1347663308   0.0000000000   0.0000000  0.0
BO97      -3.6961951453  -0.9477542960   0.0000000000   0.0000000  0.0
BO102      0.5136861113   3.1666713809   0.0000000000   0.0000000  0.0
BO113      4.1549310637   3.1167059818   0.0000000000   0.0000000  0.0
BO124      5.9157047135  -0.0660379584   0.0000000000   0.0000000  0.0
BO135      4.0525413801  -3.1865688707   0.0000000000   0.0000000  0.0
BO146      0.4204004519  -3.1299161851   0.0000000000   0.0000000  0.0
BO159     -5.1451315892  -1.9364169786   0.0000000000   0.0000000  0.0
 STOP
 MONOPOLES 
A01C      -5.6042149966   6.00000
A02C      -5.5129004626   6.00000
A03C      -5.5190581756   6.00000
A04C      -5.4417279119   6.00000
A05C      -5.5134655399   6.00000
A06C      -5.5027470384   6.00000
A07C      -4.2507447654   6.00000
A08O      -8.2289115477   8.00000
A09O      -8.3650478112   8.00000
A10H      -0.6848572377   1.00000
A11H      -0.7164636958   1.00000
A12H      -0.7175202315   1.00000
A13H      -0.7175341259   1.00000
A14H      -0.6897535827   1.00000
A15H      -0.3100067146   1.00000
BO21      -0.3857834397   0.00000
BO32      -0.4467024705   0.00000
BO43      -0.3700322347   0.00000
BO54      -0.3737635780   0.00000
BO61      -0.4396658371   0.00000
BO65      -0.4546849724   0.00000
BO71      -0.1881520425   0.00000
BO87      -0.9829042094   0.00000
BO97      -0.3090651292   0.00000
BO102     -0.3680717820   0.00000
BO113     -0.3722570521   0.00000
BO124     -0.3706876752   0.00000
BO135     -0.3724034065   0.00000
BO146     -0.3669880514   0.00000
BO159     -0.4238842817   0.00000
 STOP
 DIPOLES 
A01C        0.2599019848    0.0015640112    0.0000000000
A02C        0.0468820265   -0.0928888845    0.0000000000
A03C       -0.0408070381   -0.0863266640    0.0000000000
A04C       -0.1246846879    0.0016813795    0.0000000000
A05C       -0.0473647548    0.0863943336    0.0000000000
A06C        0.0618374412    0.0863225358    0.0000000000
A07C       -0.5838729962    0.0203636170    0.0000000000
A08O        0.1851354763   -0.3348958353    0.0000000000
A09O       -0.1473458152    0.2250595369    0.0000000000
A10H       -0.0270575333    0.0328922249    0.0000000000
A11H        0.0206158509    0.0348573595    0.0000000000
A12H        0.0401240055   -0.0006486550    0.0000000000
A13H        0.0197154209   -0.0352317594    0.0000000000
A14H       -0.0254020785   -0.0323119596    0.0000000000
A15H       -0.0016158562    0.0028622716    0.0000000000
BO21        0.0738899232   -0.0033044316    0.0000000000
BO32       -0.0053939247    0.0908966245    0.0000000000
BO43       -0.0718403724   -0.0006394877    0.0000000000
BO54       -0.0722748286    0.0038360722    0.0000000000
BO61       -0.0154465617   -0.0314962898    0.0000000000
BO65       -0.0086188652   -0.0837270087    0.0000000000
BO71        0.1186402188    0.0055231794    0.0000000000
BO87        0.2113682917    0.0579474392    0.0000000000
BO97       -0.0370010895    0.0933527084    0.0000000000
BO102       0.1151257019   -0.1931817127    0.0000000000
BO113      -0.1243560555   -0.2067297299    0.0000000000
BO124      -0.2422258862    0.0040719815    0.0000000000
BO135      -0.1169271438    0.2116548644    0.0000000000
BO146       0.1158905779    0.2010859304    0.0000000000
BO159       0.3172638954   -0.0397094057    0.0000000000
 STOP
 QUADRUPOLES 
A01C       -3.5815160045   -3.5061593142   -3.8170413260   -0.0283346369 >
            0.0000000000    0.0000000000
A02C       -3.4337186318   -3.6408420371   -3.5307409892    0.0841193291 >
            0.0000000000    0.0000000000
A03C       -3.4231764926   -3.5366624533   -3.6711351256   -0.1141677842 >
            0.0000000000    0.0000000000
A04C       -3.4976486329   -3.2734346930   -3.4267874273    0.0040536643 >
            0.0000000000    0.0000000000
A05C       -3.3928486543   -3.5376507528   -3.6661267772    0.1098809741 >
            0.0000000000    0.0000000000
A06C       -3.4258351350   -3.5960928011   -3.5430080992   -0.1005846590 >
            0.0000000000    0.0000000000
A07C       -2.1565244541   -1.6444679658   -1.8481379817    0.0607620474 >
            0.0000000000    0.0000000000
A08O       -4.1803129728   -3.8731411142   -3.9654260093   -0.3270612139 >
            0.0000000000    0.0000000000
A09O       -3.8440546771   -4.0628623860   -4.4532418119    0.1737697682 >
            0.0000000000    0.0000000000
A10H       -0.3888447495   -0.3823640192   -0.3905763055   -0.0011418775 >
            0.0000000000    0.0000000000
A11H       -0.4210368416   -0.4181681473   -0.4235790397    0.0028819918 >
            0.0000000000    0.0000000000
A12H       -0.4173898879   -0.4238766694   -0.4247214748   -0.0001158447 >
            0.0000000000    0.0000000000
A13H       -0.4225872629   -0.4190955516   -0.4248611896   -0.0027113478 >
            0.0000000000    0.0000000000
A14H       -0.3917563212   -0.3868339559   -0.3946466039    0.0019811319 >
            0.0000000000    0.0000000000
A15H       -0.1404935742   -0.1386165406   -0.1413669828    0.0015505887 >
            0.0000000000    0.0000000000
BO21        0.1380064029   -0.0151597964   -0.4784659036   -0.0873269283 >
            0.0000000000    0.0000000000
BO32       -0.0966889435   -0.0277149785   -0.6931135350    0.0011294417 >
            0.0000000000    0.0000000000
BO43        0.2738877533    0.0749466157   -0.4883699048    0.1122112148 >
            0.0000000000    0.0000000000
BO54        0.2559265024    0.0740253258   -0.4991373924   -0.1133062663 >
            0.0000000000    0.0000000000
BO61       -0.0899990966   -0.1509153308   -0.6196278640   -0.0140354908 >
            0.0000000000    0.0000000000
BO65       -0.0962787388   -0.0419941725   -0.6992886454   -0.0048183753 >
            0.0000000000    0.0000000000
BO71        0.0192834856    0.1311138426   -0.0691836034    0.0110939815 >
            0.0000000000    0.0000000000
BO87       -0.4843421503   -0.4223767743   -0.9020187685   -0.1562155624 >
            0.0000000000    0.0000000000
BO97        0.3324698358    0.1733621169   -0.0128537325   -0.0754371399 >
            0.0000000000    0.0000000000
BO102      -0.2912690480   -0.2901965155   -0.2943051278    0.0028167043 >
            0.0000000000    0.0000000000
BO113      -0.3028675979   -0.3042669356   -0.3085579331   -0.0015006706 >
            0.0000000000    0.0000000000
BO124      -0.3018508763   -0.2985366161   -0.3051540278    0.0000663863 >
            0.0000000000    0.0000000000
BO135      -0.3032427653   -0.3046541526   -0.3089570796    0.0014643100 >
            0.0000000000    0.0000000000
BO146      -0.2873835653   -0.2886964465   -0.2941231962   -0.0048096923 >
            0.0000000000    0.0000000000
BO159      -0.1961884669   -0.1691704080   -0.1652870314    0.0134404009 >
            0.0000000000    0.0000000000
 STOP
 OCTUPOLES  
A01C          1.346417069      0.006798682      0.000000000     -0.001764513 >
              0.000000000      0.281549299      0.000000000      0.414559143 >
              0.000165935      0.000000000
A02C          0.119486051     -0.469032640      0.000000000     -0.142958553 >
              0.000000000      0.209201294      0.000000000      0.031245220 >
             -0.076315847      0.000000000
A03C         -0.087692461     -0.453989848      0.000000000     -0.160020242 >
              0.000000000     -0.197252642      0.000000000     -0.016626723 >
             -0.072790038      0.000000000
A04C         -0.718215407      0.000519597      0.000000000      0.008231071 >
              0.000000000     -0.077700078      0.000000000     -0.165876914 >
              0.002494577      0.000000000
A05C         -0.114955866      0.463431899      0.000000000      0.147741518 >
              0.000000000     -0.203508872      0.000000000     -0.028583609 >
              0.068964232      0.000000000
A06C          0.200965078      0.421828795      0.000000000      0.144134709 >
              0.000000000      0.235110595      0.000000000      0.058472365 >
              0.063637710      0.000000000
A07C         -1.540890137      0.121225400      0.000000000      0.075095774 >
              0.000000000     -0.452899317      0.000000000     -0.472385490 >
              0.023547948      0.000000000
A08O          0.227833895     -0.702485635      0.000000000     -0.282688388 >
              0.000000000      0.094122664      0.000000000      0.088287289 >
             -0.205494668      0.000000000
A09O         -0.377125239      0.426754088      0.000000000      0.159581914 >
              0.000000000     -0.149407901      0.000000000     -0.140370866 >
              0.127557935      0.000000000
A10H         -0.043152927      0.039578054      0.000000000      0.013666595 >
              0.000000000     -0.010125257      0.000000000     -0.014456415 >
              0.016599828      0.000000000
A11H          0.029558508      0.045313654      0.000000000      0.014845714 >
              0.000000000      0.005888003      0.000000000      0.010560855 >
              0.017894904      0.000000000
A12H          0.048599440     -0.000978989      0.000000000     -0.000123259 >
              0.000000000      0.020152801      0.000000000      0.020535358 >
             -0.000330436      0.000000000
A13H          0.028530348     -0.045274430      0.000000000     -0.015290107 >
              0.000000000      0.005550415      0.000000000      0.010122317 >
             -0.018062281      0.000000000
A14H         -0.039745957     -0.039167066      0.000000000     -0.012946255 >
              0.000000000     -0.008706129      0.000000000     -0.013377115 >
             -0.016280701      0.000000000
A15H          0.001837715      0.007117232      0.000000000      0.002454516 >
              0.000000000      0.002047368      0.000000000      0.000409446 >
              0.001543015      0.000000000
BO21          0.581427612     -0.058549841      0.000000000     -0.130342131 >
              0.000000000      0.192618103      0.000000000      0.269946948 >
             -0.078349786      0.000000000
BO32         -0.024025867      0.524472791      0.000000000      0.170093532 >
              0.000000000     -0.006909241      0.000000000     -0.009012096 >
              0.134987383      0.000000000
BO43         -0.574534442      0.000410136      0.000000000     -0.202117987 >
              0.000000000     -0.191912875      0.000000000     -0.244405476 >
             -0.062273378      0.000000000
BO54         -0.540157207      0.015643458      0.000000000      0.193103101 >
              0.000000000     -0.195709832      0.000000000     -0.246051806 >
              0.071206418      0.000000000
BO61         -0.068302039     -0.199824735      0.000000000     -0.094290109 >
              0.000000000     -0.071629869      0.000000000      0.019968056 >
             -0.048820089      0.000000000
BO65         -0.046430614     -0.492784565      0.000000000     -0.158831956 >
              0.000000000     -0.014851117      0.000000000     -0.015637069 >
             -0.121758463      0.000000000
BO71          0.533961202     -0.011942900      0.000000000      0.031334214 >
              0.000000000      0.210120983      0.000000000      0.179445101 >
              0.007788980      0.000000000
BO87          1.105458212      0.148915156      0.000000000      0.139270595 >
              0.000000000      0.318206191      0.000000000      0.297509691 >
              0.068762581      0.000000000
BO97         -0.023686476      0.309203066      0.000000000      0.132749953 >
              0.000000000     -0.076623883      0.000000000     -0.025924424 >
              0.090278555      0.000000000
BO102         0.388080497     -0.665367538      0.000000000     -0.222215779 >
              0.000000000      0.132495307      0.000000000      0.129885899 >
             -0.222035185      0.000000000
BO113        -0.438376341     -0.732557954      0.000000000     -0.244391543 >
              0.000000000     -0.149728300      0.000000000     -0.147124622 >
             -0.244484361      0.000000000
BO124        -0.860988947      0.014315798      0.000000000      0.004956319 >
              0.000000000     -0.283400917      0.000000000     -0.286367558 >
              0.004820252      0.000000000
BO135        -0.411325463      0.751543104      0.000000000      0.250393102 >
              0.000000000     -0.140710658      0.000000000     -0.138096347 >
              0.250741087      0.000000000
BO146         0.391547870      0.699532184      0.000000000      0.236074241 >
              0.000000000      0.133538302      0.000000000      0.132302812 >
              0.233332421      0.000000000
BO159         0.755693306     -0.048458790      0.000000000     -0.025442662 >
              0.000000000      0.231737915      0.000000000      0.230058568 >
             -0.015704035      0.000000000
 STOP
 POLARIZABLE POINTS
CT1  -4.0684477022  -2.2649643861  -0.4728968484
    1.3977901976    1.9246123376    1.1273523061    0.7775425799 >
    0.0802683804    0.6640105179    0.5700529627   -0.1005800715 >
    0.4576698806
CT2  -3.9024365437   1.4379081175  -0.4702531107
    2.4903572871    2.6620506411    1.4127083049   -2.2969044699 >
   -0.4232540920    0.5063927673   -1.5787626695   -0.2966348316 >
    0.5272613489
CT3   3.9470124782   1.1117160654   0.5413061563
    8.1260042878    6.2577083817    2.0574367749   -0.9740038101 >
    1.5363866712    0.2621689703   -0.9569044222    0.2921893207 >
    0.0795994189
CT4   0.2649625172  -1.1298737939  -0.0000000530
    1.9024295968    2.1021684233    0.4127308840   -0.2522033621 >
    0.0000000691    0.0000000867   -0.2474191233    0.0000000154 >
    0.0000000138
CT5   2.3873486025  -2.0071140816   0.5429158303
    6.4527951066    7.0127719935    2.0607425616    0.3497090680 >
   -0.3078478343   -1.5416786481    0.3206831040   -0.0698456343 >
   -0.3220280405
CT6  -3.8735096855  -1.2037602887   0.0000001851
    1.8328157415    1.8577905075    0.2948114205    1.3697765763 >
    0.0000002407    0.0000003517    0.7801094132    0.0000000902 >
    0.0000002208
CT7   0.4074893957   0.8746348441  -0.5382851065
   10.1814746909    5.4177377120    2.0209483304    0.4112413142 >
    0.5837097933   -0.6941506796    0.0980330161    0.1042121041 >
   -0.1175258331
CT8   2.3289722074   2.2938523982  -0.0000000379
    2.4882623107    1.6388931190    0.3952174782    0.1308831284 >
   -0.0000000111   -0.0000001226    0.1017842069    0.0000000006 >
   -0.0000000257
CT9  -1.7450542675   0.0682299851  -0.0000000010
    5.1293233034    1.3527155113    0.9544155880    0.2696869101 >
    0.0000000500   -0.0000000032    0.0806687398    0.0000000099 >
   -0.0000000008
CT10  -4.8860584228   1.9703790868   0.0000000042
    2.6474654657    0.9775928770    0.5113099609   -0.1160875291 >
   -0.0000000142    0.0000000090   -0.4880294931   -0.0000000065 >
    0.0000000032
CT11   4.2378790291  -3.5116719135  -0.0000000047
    2.7347687383    4.9103088464    1.1665952668   -2.1118354952 >
    0.0000000120    0.0000000220   -1.9212008634    0.0000000059 >
    0.0000000143
CT12  -5.2062508169  -1.9060686715   0.0000000425
    3.7362404900    0.5957909616    0.2830791083    0.0116538303 >
   -0.0000000685   -0.0000000359    0.6724058358   -0.0000000544 >
   -0.0000000026
CT13   4.3454486391   3.4380426724  -0.0000000049
    2.8454037531    4.7747795896    1.1691977577    2.1799988826 >
   -0.0000000315   -0.0000000068    1.9669749695   -0.0000000182 >
   -0.0000000019
CT14   4.2574517189  -1.1904936004  -0.0000000399
    1.9429570767    2.2634593707    0.3873029431    0.1486876446 >
   -0.0000001363    0.0000000243    0.2353336706   -0.0000000246 >
    0.0000000070
CT15   0.3533142922   3.4757388458  -0.0000000055
    2.3377188454    4.4763338580    1.1887725012   -1.2802321069 >
    0.0000000136   -0.0000000264   -1.4052824009    0.0000000105 >
   -0.0000000151
CT16  -4.0684475908  -2.2649649845   0.4728966217
    1.3977906376    1.9246118909    1.1273512481    0.7775417756 >
   -0.0802685505   -0.6640108667    0.5700522157    0.1005800331 >
   -0.4576701018
CT17   6.2893021902  -0.0759381887  -0.0000000023
    6.2999205597    1.5727933578    1.1992185813   -0.0877576428 >
   -0.0000000185   -0.0000000011   -0.1066829014   -0.0000000089 >
   -0.0000000008
CT18   3.9470125920   1.1117160564  -0.5413061114
    8.1260025816    6.2577071796    2.0574363298   -0.9740035637 >
   -1.5363868027   -0.2621690184   -0.9569042107   -0.2921893566 >
   -0.0795994335
CT19   0.2394444873  -3.4343370313  -0.0000000040
    2.5870670291    4.4920173876    1.1786560038    1.4336747522 >
    0.0000000001    0.0000000196    1.5735855868    0.0000000024 >
    0.0000000109
CT20  -3.9024365344   1.4379081106   0.4702530982
    2.4903573143    2.6620505645    1.4127082388   -2.2969044158 >
    0.4232540945   -0.5063927683   -1.5787626381    0.2966348411 >
   -0.5272613612
CT21  -3.9881550092   2.5663495838   0.0000000034
    1.0919460525    1.8383805687    0.6420471073    0.2471415917 >
   -0.0000000052    0.0000000148    0.3324009156   -0.0000000008 >
    0.0000000099
CT22   0.4074894217   0.8746347426   0.5382851672
   10.1814766597    5.4177383906    2.0209486713    0.4112412517 >
   -0.5837096222    0.6941506024    0.0980329108   -0.1042120675 >
    0.1175258154
CT23   2.3873485763  -2.0071141424  -0.5429157787
    6.4527945558    7.0127711788    2.0607423097    0.3497090024 >
    0.3078478622    1.5416787912    0.3206830377    0.0698456411 >
    0.3220280734
 STOP
 DYNAMIC POLARIZABLE POINTS
CT  1  -4.0684477022  -2.2649643861  -0.4728968484 -- FOR W= 0.002792I A.U.
    1.3978775964    1.9241113625    1.1275408861    0.7783821807 >
    0.0804440478    0.6638054917    0.5700478080   -0.1003109982 >
    0.4578621713
CT  2  -3.9024365437   1.4379081175  -0.4702531107
    2.4893817163    2.6611979381    1.4125323611   -2.2957407346 >
   -0.4227376819    0.5061785687   -1.5782602208   -0.2966149774 >
    0.5269252474
CT  3   3.9470124782   1.1117160654   0.5413061563
    8.1252954500    6.2602944198    2.0575448059   -0.9744295223 >
    1.5360204931    0.2626335151   -0.9559391457    0.2923400270 >
    0.0794661591
CT  4   0.2649625172  -1.1298737939  -0.0000000530
    1.9026818142    2.1013305693    0.4128408037   -0.2520134036 >
    0.0000000691    0.0000000867   -0.2469578903    0.0000000154 >
    0.0000000138
CT  5   2.3873486025  -2.0071140816   0.5429158303
    6.4509459064    7.0098700858    2.0608991835    0.3486298646 >
   -0.3073698956   -1.5408581410    0.3226011391   -0.0697952093 >
   -0.3221583393
CT  6  -3.8735096855  -1.2037602887   0.0000001851
    1.8322947264    1.8574958600    0.2949798917    1.3695895309 >
    0.0000002408    0.0000003516    0.7798335130    0.0000000902 >
    0.0000002210
CT  7   0.4074893957   0.8746348441  -0.5382851065
   10.1798942951    5.4168392327    2.0210688281    0.4122074576 >
    0.5836686141   -0.6944324675    0.0950494298    0.1040332900 >
   -0.1177071129
CT  8   2.3289722074   2.2938523982  -0.0000000379
    2.4896979524    1.6389079484    0.3952508510    0.1310019768 >
   -0.0000000111   -0.0000001226    0.1007480430    0.0000000006 >
   -0.0000000257
CT  9  -1.7450542675   0.0682299851  -0.0000000010
    5.1299155353    1.3531860779    0.9544268597    0.2693949439 >
    0.0000000500   -0.0000000032    0.0804173718    0.0000000099 >
   -0.0000000008
CT 10  -4.8860584228   1.9703790868   0.0000000042
    2.6473285755    0.9779307325    0.5115252228   -0.1170075366 >
   -0.0000000142    0.0000000090   -0.4883083517   -0.0000000065 >
    0.0000000032
CT 11   4.2378790291  -3.5116719135  -0.0000000047
    2.7352199180    4.9103390541    1.1665886610   -2.1111936942 >
    0.0000000120    0.0000000220   -1.9212517861    0.0000000059 >
    0.0000000143
CT 12  -5.2062508169  -1.9060686715   0.0000000425
    3.7364621137    0.5957285940    0.2830654072    0.0114750684 >
   -0.0000000685   -0.0000000359    0.6725310158   -0.0000000543 >
   -0.0000000026
CT 13   4.3454486391   3.4380426724  -0.0000000049
    2.8457634140    4.7753508832    1.1692049085    2.1792986937 >
   -0.0000000315   -0.0000000068    1.9673871103   -0.0000000182 >
   -0.0000000019
CT 14   4.2574517189  -1.1904936004  -0.0000000399
    1.9434431785    2.2648862690    0.3872748963    0.1493126501 >
   -0.0000001362    0.0000000243    0.2359041655   -0.0000000246 >
    0.0000000070
CT 15   0.3533142922   3.4757388458  -0.0000000055
    2.3377824705    4.4760256424    1.1886907186   -1.2798993587 >
    0.0000000136   -0.0000000263   -1.4054261066    0.0000000105 >
   -0.0000000151
CT 16  -4.0684475908  -2.2649649845   0.4728966217
    1.3978780361    1.9241109165    1.1275398280    0.7783813756 >
   -0.0804442180   -0.6638058404    0.5700470614    0.1003109598 >
   -0.4578623927
CT 17   6.2893021902  -0.0759381887  -0.0000000023
    6.2993214070    1.5725406926    1.1989498250   -0.0876003986 >
   -0.0000000185   -0.0000000011   -0.1069136689   -0.0000000089 >
   -0.0000000008
CT 18   3.9470125920   1.1117160564  -0.5413061114
    8.1252937442    6.2602932167    2.0575443607   -0.9744292758 >
   -1.5360206246   -0.2626335633   -0.9559389343   -0.2923400630 >
   -0.0794661737
CT 19   0.2394444873  -3.4343370313  -0.0000000040
    2.5868975076    4.4919974141    1.1786069979    1.4331618134 >
    0.0000000001    0.0000000196    1.5738495609    0.0000000024 >
    0.0000000109
CT 20  -3.9024365344   1.4379081106   0.4702530982
    2.4893817435    2.6611978616    1.4125322951   -2.2957406807 >
    0.4227376844   -0.5061785698   -1.5782601896    0.2966149869 >
   -0.5269252596
CT 21  -3.9881550092   2.5663495838   0.0000000034
    1.0918528580    1.8388235609    0.6415325446    0.2466353796 >
   -0.0000000052    0.0000000148    0.3318841464   -0.0000000008 >
    0.0000000099
CT 22   0.4074894217   0.8746347426   0.5382851672
   10.1798962637    5.4168399109    2.0210691691    0.4122073953 >
   -0.5836684431    0.6944323903    0.0950493236   -0.1040332534 >
    0.1177070953
CT 23   2.3873485763  -2.0071141424  -0.5429157787
    6.4509453562    7.0098692715    2.0608989315    0.3486297992 >
    0.3073699235    1.5408582840    0.3226010722    0.0697952162 >
    0.3221583722
CT  1  -4.0684477022  -2.2649643861  -0.4728968484 -- FOR W= 0.015107I A.U.
    1.3969142457    1.9229853794    1.1273470331    0.7769435010 >
    0.0800730469    0.6634775635    0.5692029858   -0.1001394940 >
    0.4577643485
CT  2  -3.9024365437   1.4379081175  -0.4702531107
    2.4839979553    2.6584199738    1.4120956141   -2.2896505556 >
   -0.4218818962    0.5057633818   -1.5759906465   -0.2963995930 >
    0.5265259108
CT  3   3.9470124782   1.1117160654   0.5413061563
    8.1042759889    6.2475905530    2.0572564101   -0.9673748548 >
    1.5316119649    0.2630332271   -0.9490099888    0.2926604840 >
    0.0795685970
CT  4   0.2649625172  -1.1298737939  -0.0000000530
    1.9051660706    2.1039019958    0.4129915624   -0.2545215986 >
    0.0000000689    0.0000000866   -0.2483788854    0.0000000154 >
    0.0000000138
CT  5   2.3873486025  -2.0071140816   0.5429158303
    6.4416322593    6.9907346691    2.0606023004    0.3454475848 >
   -0.3060905044   -1.5356724873    0.3198555740   -0.0698339425 >
   -0.3224318500
CT  6  -3.8735096855  -1.2037602887   0.0000001851
    1.8309261056    1.8577914766    0.2950838498    1.3679051966 >
    0.0000002404    0.0000003513    0.7796866144    0.0000000901 >
    0.0000002210
CT  7   0.4074893957   0.8746348441  -0.5382851065
   10.1487075064    5.4091954070    2.0207977949    0.4088511269 >
    0.5818281549   -0.6931530740    0.0933244395    0.1042339603 >
   -0.1179564654
CT  8   2.3289722074   2.2938523982  -0.0000000379
    2.4923725825    1.6393419306    0.3953960372    0.1307203438 >
   -0.0000000111   -0.0000001222    0.1003276083    0.0000000006 >
   -0.0000000257
CT  9  -1.7450542675   0.0682299851  -0.0000000010
    5.1267140887    1.3544692700    0.9538877976    0.2686427295 >
    0.0000000498   -0.0000000031    0.0803189650    0.0000000099 >
   -0.0000000008
CT 10  -4.8860584228   1.9703790868   0.0000000042
    2.6458138597    0.9783783293    0.5116518087   -0.1178700027 >
   -0.0000000142    0.0000000090   -0.4883530143   -0.0000000065 >
    0.0000000032
CT 11   4.2378790291  -3.5116719135  -0.0000000047
    2.7354601705    4.9068935068    1.1660349940   -2.1078364402 >
    0.0000000119    0.0000000220   -1.9182394885    0.0000000059 >
    0.0000000143
CT 12  -5.2062508169  -1.9060686715   0.0000000425
    3.7337175492    0.5960120775    0.2830735567    0.0113043996 >
   -0.0000000685   -0.0000000359    0.6717221683   -0.0000000543 >
   -0.0000000026
CT 13   4.3454486391   3.4380426724  -0.0000000049
    2.8456862899    4.7722036190    1.1686470819    2.1757684319 >
   -0.0000000314   -0.0000000068    1.9642117330   -0.0000000182 >
   -0.0000000019
CT 14   4.2574517189  -1.1904936004  -0.0000000399
    1.9450990900    2.2666360136    0.3874551625    0.1517336156 >
   -0.0000001358    0.0000000244    0.2371794540   -0.0000000247 >
    0.0000000070
CT 15   0.3533142922   3.4757388458  -0.0000000055
    2.3391866331    4.4732873792    1.1881125178   -1.2784086280 >
    0.0000000136   -0.0000000263   -1.4031614791    0.0000000104 >
   -0.0000000151
CT 16  -4.0684475908  -2.2649649845   0.4728966217
    1.3969146859    1.9229849354    1.1273459753    0.7769426967 >
   -0.0800732168   -0.6634779120    0.5692022401    0.1001394556 >
   -0.4577645699
CT 17   6.2893021902  -0.0759381887  -0.0000000023
    6.2928625774    1.5738529944    1.1983506489   -0.0874910016 >
   -0.0000000185   -0.0000000011   -0.1066868848   -0.0000000089 >
   -0.0000000008
CT 18   3.9470125920   1.1117160564  -0.5413061114
    8.1042742891    6.2475893544    2.0572559650   -0.9673746110 >
   -1.5316120960   -0.2630332753   -0.9490097798   -0.2926605200 >
   -0.0795686117
CT 19   0.2394444873  -3.4343370313  -0.0000000040
    2.5877070590    4.4890407248    1.1780211511    1.4312911801 >
    0.0000000001    0.0000000196    1.5711195819    0.0000000024 >
    0.0000000109
CT 20  -3.9024365344   1.4379081106   0.4702530982
    2.4839979825    2.6584198975    1.4120955481   -2.2896505019 >
    0.4218818987   -0.5057633829   -1.5759906154    0.2963996025 >
   -0.5265259230
CT 21  -3.9881550092   2.5663495838   0.0000000034
    1.0919911945    1.8390258727    0.6410988052    0.2460995739 >
   -0.0000000051    0.0000000148    0.3317001775   -0.0000000008 >
    0.0000000098
CT 22   0.4074894217   0.8746347426   0.5382851672
   10.1487094666    5.4091960831    2.0207981357    0.4088510637 >
   -0.5818279844    0.6931529969    0.0933243330   -0.1042339237 >
    0.1179564477
CT 23   2.3873485763  -2.0071141424  -0.5429157787
    6.4416317111    6.9907338579    2.0606020485    0.3454475200 >
    0.3060905322    1.5356726298    0.3198555077    0.0698339494 >
    0.3224318829
CT  1  -4.0684477022  -2.2649643861  -0.4728968484 -- FOR W= 0.039002I A.U.
    1.3913286486    1.9163913620    1.1262099229    0.7686641796 >
    0.0779488696    0.6615495787    0.5642939003   -0.0991475010 >
    0.4571800387
CT  2  -3.9024365437   1.4379081175  -0.4702531107
    2.4531276473    2.6422788987    1.4095405135   -2.2547314879 >
   -0.4169648062    0.5033449326   -1.5628163911   -0.2951389555 >
    0.5241944987
CT  3   3.9470124782   1.1117160654   0.5413061563
    7.9835732913    6.1744263031    2.0555596608   -0.9276493770 >
    1.5062383990    0.2651342267   -0.9099390072    0.2945054107 >
    0.0801582495
CT  4   0.2649625172  -1.1298737939  -0.0000000530
    1.9192116592    2.1185207331    0.4138603116   -0.2687692702 >
    0.0000000677    0.0000000857   -0.2564905649    0.0000000155 >
    0.0000000140
CT  5   2.3873486025  -2.0071140816   0.5429158303